50, 62425
2551, 130
2552, 975
2553, 932
2554, 618
2555, 46
2556, 832
2557, 237
2558, 190
2559, 969
2560, 946
2561, 266
2562, 965
2563, 310
2564, 388
2565, 752
2566, 198
2567, 645
2568, 872
2569, 943
2570, 108
2571, 92
2572, 288
2573, 953
2574, 675
2575, 456
2576, 562
2577, 378
2578, 177
2579, 829
2580, 285
2581, 677
2582, 270
2583, 153
2584, 33
2585, 53
2586, 275
2587, 653
2588, 963
2589, 257
2590, 486
2591, 515
2592, 878
2593, 357
2594, 52
2595, 488
2596, 434
2597, 288
2598, 525
2599, 651
2600, 648
